c colouring generated by benchmark framework
p edge 111 530
v 1 2
v 2 4
v 3 4
v 4 4
v 5 4
v 6 4
v 7 3
v 8 0
v 9 0
v 10 1
v 11 3
v 12 3
v 13 2
v 14 1
v 15 2
v 16 1
v 17 0
v 18 1
v 19 1
v 20 2
v 21 1
v 22 1
v 23 0
v 24 3
v 25 0
v 26 3
v 27 1
v 28 1
v 29 2
v 30 1
v 31 4
v 32 2
v 33 1
v 34 0
v 35 3
v 36 3
v 37 0
v 38 0
v 39 0
v 40 2
v 41 2
v 42 3
v 43 0
v 44 2
v 45 4
v 46 2
v 47 3
v 48 2
v 49 4
v 50 1
v 51 4
v 52 2
v 53 4
v 54 4
v 55 2
v 56 3
v 57 3
v 58 2
v 59 3
v 60 2
v 61 3
v 62 4
v 63 1
v 64 0
v 65 4
v 66 0
v 67 3
v 68 3
v 69 1
v 70 0
v 71 1
v 72 4
v 73 4
v 74 0
v 75 3
v 76 0
v 77 1
v 78 4
v 79 1
v 80 0
v 81 4
v 82 1
v 83 4
v 84 3
v 85 1
v 86 4
v 87 3
v 88 3
v 89 4
v 90 0
v 91 1
v 92 1
v 93 0
v 94 1
v 95 2
v 96 2
v 97 1
v 98 3
v 99 3
v 100 4
v 101 3
v 102 1
v 103 1
v 104 2
v 105 0
v 106 4
v 107 4
v 108 1
v 109 0
v 110 1
v 111 4
